(set-info :smt-lib-version 2.6)
(set-logic UF)
(set-info :source |
Generated by: Andrew Reynolds
Generated on: 2017-04-28
Generator: Sledgehammer, converted to v2.6 by CVC4
Application: Verfication goals in Isabelle
Target solver: CVC4, Z3
Publications: "A Decision Procedure for (Co)Datatypes" by Andrew Reynolds and Jasmin Blanchette, CADE 2015.
|)
(set-info :license "https://creativecommons.org/licenses/by/4.0/")
(set-info :category "industrial")
(set-info :status unsat)


(declare-sort A$ 0)
(declare-sort Nat$ 0)
(declare-sort A_a_fun$ 0)
(declare-sort A_bool_fun$ 0)
(declare-sort Nat_nat_fun$ 0)
(declare-sort A_a_list_fun$ 0)
(declare-sort Bool_nat_fun$ 0)
(declare-sort Nat_bool_fun$ 0)
(declare-sort A_list_nat_fun$ 0)
(declare-sort A_list_bool_fun$ 0)
(declare-sort Nat_natural_fun$ 0)
(declare-sort A_list_a_list_fun$ 0)
(declare-sort Natural_natural_fun$ 0)
(declare-sort Nat_nat_bool_fun_fun$ 0)
(declare-sort A_stream$ 0)
(declare-fun shd$ (A_stream$) A$)
(declare-fun stl$ (A_stream$) A_stream$)
(declare-fun sCons$ (A$ A_stream$) A_stream$)
(declare-sort A_list$ 0)
(declare-sort Nibble$ 0)
(declare-sort Char$ 0)
(declare-sort Char_list$ 0)
(declare-sort Literal$ 0)
(declare-sort Natural$ 0)
(declare-fun nil$ () A_list$)
(declare-fun hd$ (A_list$) A$)
(declare-fun tl$ (A_list$) A_list$)
(declare-fun cons$ (A$ A_list$) A_list$)
(declare-fun nibble0$ () Nibble$)
(declare-fun nibble1$ () Nibble$)
(declare-fun nibble2$ () Nibble$)
(declare-fun nibble3$ () Nibble$)
(declare-fun nibble4$ () Nibble$)
(declare-fun nibble5$ () Nibble$)
(declare-fun nibble6$ () Nibble$)
(declare-fun nibble7$ () Nibble$)
(declare-fun nibble8$ () Nibble$)
(declare-fun nibble9$ () Nibble$)
(declare-fun nibbleA$ () Nibble$)
(declare-fun nibbleB$ () Nibble$)
(declare-fun nibbleC$ () Nibble$)
(declare-fun nibbleD$ () Nibble$)
(declare-fun nibbleE$ () Nibble$)
(declare-fun nibbleF$ () Nibble$)
(declare-fun select$ (Char$) Nibble$)
(declare-fun selecta$ (Char$) Nibble$)
(declare-fun char$ (Nibble$ Nibble$) Char$)
(declare-fun nil$a () Char_list$)
(declare-fun hd$a (Char_list$) Char$)
(declare-fun tl$a (Char_list$) Char_list$)
(declare-fun cons$a (Char$ Char_list$) Char_list$)
(declare-fun explode$ (Literal$) Char_list$)
(declare-fun str$ (Char_list$) Literal$)
(declare-fun nat_of_natural$ (Natural$) Nat$)
(declare-fun natural_of_nat$ (Nat$) Natural$)
(declare-fun u$ () A_list$)
(declare-fun suc$ (Natural$) Natural$)
(declare-fun bind$ (A_list$ A_a_list_fun$) A_list$)
(declare-fun less$ (Nat$) Nat_bool_fun$)
(declare-fun plus$ (Nat$) Nat_nat_fun$)
(declare-fun size$ () A_list_nat_fun$)
(declare-fun smap$ (A_a_fun$ A_stream$) A_stream$)
(declare-fun suc$a (Nat$) Nat$)
(declare-fun take$ (Nat$) A_list_a_list_fun$)
(declare-fun zero$ () Nat$)
(declare-fun cycle$ (A_list$) A_stream$)
(declare-fun less$a (Natural$ Natural$) Bool)
(declare-fun minus$ (Nat$) Nat_nat_fun$)
(declare-fun plus$a (Natural$ Natural$) Natural$)
(declare-fun sdrop$ (Nat$ A_stream$) A_stream$)
(declare-fun shift$ (A_list$ A_stream$) A_stream$)
(declare-fun size$a (Literal$) Nat$)
(declare-fun size$b (Nibble$) Nat$)
(declare-fun size$c (Char$) Nat$)
(declare-fun size$d () Bool_nat_fun$)
(declare-fun size$e (Natural$) Nat$)
(declare-fun stake$ (Nat$ A_stream$) A_list$)
(declare-fun zero$a () Natural$)
(declare-fun append$ (A_list$) A_list_a_list_fun$)
(declare-fun minus$a (Natural$) Natural_natural_fun$)
(declare-fun splice$ (A_list$) A_list_a_list_fun$)
(declare-fun fun_app$ (A_list_nat_fun$ A_list$) Nat$)
(declare-fun fun_app$a (Bool_nat_fun$ Bool) Nat$)
(declare-fun fun_app$b (Nat_nat_fun$ Nat$) Nat$)
(declare-fun fun_app$c (A_list_a_list_fun$ A_list$) A_list$)
(declare-fun fun_app$d (A_list_bool_fun$ A_list$) Bool)
(declare-fun fun_app$e (Nat_bool_fun$ Nat$) Bool)
(declare-fun fun_app$f (Nat_nat_bool_fun_fun$ Nat$) Nat_bool_fun$)
(declare-fun fun_app$g (Nat_natural_fun$ Nat$) Natural$)
(declare-fun fun_app$h (Natural_natural_fun$ Natural$) Natural$)
(declare-fun list_ex1$ (A_bool_fun$) A_list_bool_fun$)
(declare-fun rec_bool$ (Nat$ Nat$) Bool_nat_fun$)
(declare-fun size_bool$ () Bool_nat_fun$)
(declare-fun size_char$ (Char$) Nat$)
(declare-fun count_list$ (A_list$ A$) Nat$)
(declare-fun gen_length$ (Nat$) A_list_nat_fun$)
(declare-fun size_natural$ (Natural$) Nat$)
(declare-fun nibble_of_nat$ (Nat$) Nibble$)
(assert (not (= (sdrop$ (fun_app$ size$ u$) (cycle$ u$)) (cycle$ u$))))
(assert (not (= u$ nil$)))
(assert (forall ((?v0 A_list$)) (=> (not (= ?v0 nil$)) (= (stake$ (fun_app$ size$ ?v0) (cycle$ ?v0)) ?v0)) ))
(assert (forall ((?v0 A_list$) (?v1 A_list$)) (=> (not (= (fun_app$ size$ ?v0) (fun_app$ size$ ?v1))) (= (= ?v0 ?v1) false)) ))
(assert (forall ((?v0 Nat$)) (exists ((?v1 A_list$)) (= (fun_app$ size$ ?v1) ?v0) ) ))
(assert (forall ((?v0 Literal$) (?v1 Literal$)) (=> (not (= (size$a ?v0) (size$a ?v1))) (not (= ?v0 ?v1))) ))
(assert (forall ((?v0 Nibble$) (?v1 Nibble$)) (=> (not (= (size$b ?v0) (size$b ?v1))) (not (= ?v0 ?v1))) ))
(assert (forall ((?v0 Char$) (?v1 Char$)) (=> (not (= (size$c ?v0) (size$c ?v1))) (not (= ?v0 ?v1))) ))
(assert (forall ((?v0 A_list$) (?v1 A_list$)) (=> (not (= (fun_app$ size$ ?v0) (fun_app$ size$ ?v1))) (not (= ?v0 ?v1))) ))
(assert (forall ((?v0 Bool) (?v1 Bool)) (=> (not (= (fun_app$a size$d ?v0) (fun_app$a size$d ?v1))) (not (= ?v0 ?v1))) ))
(assert (forall ((?v0 A_list$)) (=> (and (=> (= ?v0 nil$) false) (=> (not (= ?v0 nil$)) false)) false) ))
(assert (forall ((?v0 A_list$)) (! (=> (not (= ?v0 nil$)) (= (cycle$ ?v0) (shift$ ?v0 (cycle$ ?v0)))) :pattern ((cycle$ ?v0)))))
(assert (forall ((?v0 Nat$) (?v1 A_stream$)) (= (fun_app$ size$ (stake$ ?v0 ?v1)) ?v0) ))
(assert (forall ((?v0 Nat$) (?v1 A_a_fun$) (?v2 A_stream$)) (= (sdrop$ ?v0 (smap$ ?v1 ?v2)) (smap$ ?v1 (sdrop$ ?v0 ?v2))) ))
(assert (forall ((?v0 Nat$) (?v1 Nat$) (?v2 A_stream$)) (= (sdrop$ ?v0 (sdrop$ ?v1 ?v2)) (sdrop$ (fun_app$b (plus$ ?v1) ?v0) ?v2)) ))
(assert (forall ((?v0 A_a_list_fun$)) (! (= (bind$ nil$ ?v0) nil$) :pattern ((bind$ nil$ ?v0)))))
(assert (forall ((?v0 A_list$)) (= (= (fun_app$ size$ ?v0) zero$) (= ?v0 nil$)) ))
(assert (= (fun_app$ size$ nil$) zero$))
(assert (forall ((?v0 A_list$) (?v1 A_stream$) (?v2 A_stream$)) (= (= (shift$ ?v0 ?v1) (shift$ ?v0 ?v2)) (= ?v1 ?v2)) ))
(assert (forall ((?v0 Nat$) (?v1 A_stream$)) (= (= (stake$ ?v0 ?v1) nil$) (= ?v0 zero$)) ))
(assert (forall ((?v0 A_stream$)) (! (= (stake$ zero$ ?v0) nil$) :pattern ((stake$ zero$ ?v0)))))
(assert (forall ((?v0 Nat$) (?v1 A_stream$)) (= (shift$ (stake$ ?v0 ?v1) (sdrop$ ?v0 ?v1)) ?v1) ))
(assert (forall ((?v0 A_stream$)) (! (= (shift$ nil$ ?v0) ?v0) :pattern ((shift$ nil$ ?v0)))))
(assert (forall ((?v0 A_stream$)) (! (= (sdrop$ zero$ ?v0) ?v0) :pattern ((sdrop$ zero$ ?v0)))))
(assert (forall ((?v0 Nat$) (?v1 Nat$)) (= (= (fun_app$b (plus$ ?v0) ?v1) zero$) (and (= ?v0 zero$) (= ?v1 zero$))) ))
(assert (forall ((?v0 Nat$)) (! (= (fun_app$b (plus$ ?v0) zero$) ?v0) :pattern ((plus$ ?v0)))))
(assert (forall ((?v0 Nat$)) (= (fun_app$b (plus$ ?v0) zero$) ?v0) ))
(assert (forall ((?v0 Natural$)) (= (plus$a ?v0 zero$a) ?v0) ))
(assert (forall ((?v0 Nat$)) (= (fun_app$b (plus$ zero$) ?v0) ?v0) ))
(assert (forall ((?v0 Natural$)) (= (plus$a zero$a ?v0) ?v0) ))
(assert (forall ((?v0 Nibble$)) (! (= (size$b ?v0) zero$) :pattern ((size$b ?v0)))))
(assert (forall ((?v0 Char$)) (! (= (size$c ?v0) zero$) :pattern ((size$c ?v0)))))
(assert (= (fun_app$a size$d true) zero$))
(assert (= (fun_app$a size$d false) zero$))
(assert (forall ((?v0 Natural$) (?v1 Natural$) (?v2 Natural$)) (= (= (plus$a ?v0 ?v1) (plus$a ?v2 ?v1)) (= ?v0 ?v2)) ))
(assert (forall ((?v0 Nat$) (?v1 Nat$) (?v2 Nat$)) (= (= (fun_app$b (plus$ ?v0) ?v1) (fun_app$b (plus$ ?v2) ?v1)) (= ?v0 ?v2)) ))
(assert (forall ((?v0 Natural$) (?v1 Natural$) (?v2 Natural$)) (= (= (plus$a ?v0 ?v1) (plus$a ?v0 ?v2)) (= ?v1 ?v2)) ))
(assert (forall ((?v0 Nat$) (?v1 Nat$) (?v2 Nat$)) (= (= (fun_app$b (plus$ ?v0) ?v1) (fun_app$b (plus$ ?v0) ?v2)) (= ?v1 ?v2)) ))
(assert (forall ((?v0 Nat$)) (= (= zero$ ?v0) (= ?v0 zero$)) ))
(assert (forall ((?v0 Natural$)) (= (= zero$a ?v0) (= ?v0 zero$a)) ))
(assert (forall ((?v0 Natural$) (?v1 Natural$) (?v2 Natural$) (?v3 Natural$)) (=> (and (= ?v0 ?v1) (= ?v2 ?v3)) (= (plus$a ?v0 ?v2) (plus$a ?v1 ?v3))) ))
(assert (forall ((?v0 Nat$) (?v1 Nat$) (?v2 Nat$) (?v3 Nat$)) (=> (and (= ?v0 ?v1) (= ?v2 ?v3)) (= (fun_app$b (plus$ ?v0) ?v2) (fun_app$b (plus$ ?v1) ?v3))) ))
(assert (forall ((?v0 Natural$) (?v1 Natural$) (?v2 Natural$)) (=> (= (plus$a ?v0 ?v1) (plus$a ?v0 ?v2)) (= ?v1 ?v2)) ))
(assert (forall ((?v0 Nat$) (?v1 Nat$) (?v2 Nat$)) (=> (= (fun_app$b (plus$ ?v0) ?v1) (fun_app$b (plus$ ?v0) ?v2)) (= ?v1 ?v2)) ))
(assert (forall ((?v0 Natural$) (?v1 Natural$) (?v2 Natural$)) (=> (= (plus$a ?v0 ?v1) (plus$a ?v2 ?v1)) (= ?v0 ?v2)) ))
(assert (forall ((?v0 Nat$) (?v1 Nat$) (?v2 Nat$)) (=> (= (fun_app$b (plus$ ?v0) ?v1) (fun_app$b (plus$ ?v2) ?v1)) (= ?v0 ?v2)) ))
(assert (forall ((?v0 Natural$) (?v1 Natural$)) (= (plus$a ?v0 ?v1) (plus$a ?v1 ?v0)) ))
(assert (forall ((?v0 Nat$) (?v1 Nat$)) (= (fun_app$b (plus$ ?v0) ?v1) (fun_app$b (plus$ ?v1) ?v0)) ))
(assert (forall ((?v0 Natural$) (?v1 Natural$) (?v2 Natural$)) (= (plus$a ?v0 (plus$a ?v1 ?v2)) (plus$a ?v1 (plus$a ?v0 ?v2))) ))
(assert (forall ((?v0 Nat$) (?v1 Nat$) (?v2 Nat$)) (= (fun_app$b (plus$ ?v0) (fun_app$b (plus$ ?v1) ?v2)) (fun_app$b (plus$ ?v1) (fun_app$b (plus$ ?v0) ?v2))) ))
(assert (forall ((?v0 Natural$) (?v1 Natural$) (?v2 Natural$)) (= (plus$a (plus$a ?v0 ?v1) ?v2) (plus$a ?v0 (plus$a ?v1 ?v2))) ))
(assert (forall ((?v0 Nat$) (?v1 Nat$) (?v2 Nat$)) (= (fun_app$b (plus$ (fun_app$b (plus$ ?v0) ?v1)) ?v2) (fun_app$b (plus$ ?v0) (fun_app$b (plus$ ?v1) ?v2))) ))
(assert (forall ((?v0 Natural$) (?v1 Natural$) (?v2 Natural$)) (= (plus$a (plus$a ?v0 ?v1) ?v2) (plus$a ?v0 (plus$a ?v1 ?v2))) ))
(assert (forall ((?v0 Nat$) (?v1 Nat$) (?v2 Nat$)) (= (fun_app$b (plus$ (fun_app$b (plus$ ?v0) ?v1)) ?v2) (fun_app$b (plus$ ?v0) (fun_app$b (plus$ ?v1) ?v2))) ))
(assert (forall ((?v0 Nat$)) (=> (and (=> (= ?v0 zero$) false) (=> (not (= ?v0 zero$)) false)) false) ))
(assert (forall ((?v0 Literal$)) (! (= (size$a ?v0) zero$) :pattern ((size$a ?v0)))))
(assert (forall ((?v0 Bool)) (! (= (fun_app$a size$d ?v0) zero$) :pattern ((fun_app$a size$d ?v0)))))
(assert (forall ((?v0 Nat$) (?v1 Nat$) (?v2 Nat$)) (= (= (fun_app$b (plus$ ?v0) ?v1) (fun_app$b (plus$ ?v0) ?v2)) (= ?v1 ?v2)) ))
(assert (forall ((?v0 Nat$) (?v1 Nat$) (?v2 Nat$)) (= (= (fun_app$b (plus$ ?v0) ?v1) (fun_app$b (plus$ ?v2) ?v1)) (= ?v0 ?v2)) ))
(assert (forall ((?v0 Nat$)) (= (fun_app$b (plus$ zero$) ?v0) ?v0) ))
(assert (forall ((?v0 Natural$)) (= (plus$a zero$a ?v0) ?v0) ))
(assert (forall ((?v0 Nat$)) (= (fun_app$b (plus$ ?v0) zero$) ?v0) ))
(assert (forall ((?v0 Natural$)) (= (plus$a ?v0 zero$a) ?v0) ))
(assert (forall ((?v0 Nat$) (?v1 Nat$)) (=> (= (fun_app$b (plus$ ?v0) ?v1) ?v0) (= ?v1 zero$)) ))
(assert (forall ((?v0 Nat$)) (! (= (fun_app$b (plus$ zero$) ?v0) ?v0) :pattern ((fun_app$b (plus$ zero$) ?v0)))))
(assert (forall ((?v0 Char$)) (! (= (size_char$ ?v0) zero$) :pattern ((size_char$ ?v0)))))
(assert (= (size$e zero$a) zero$))
(assert (= (size$b nibbleA$) zero$))
(assert (= (fun_app$a size_bool$ false) zero$))
(assert (= (fun_app$a size_bool$ true) zero$))
(assert (= (size$b nibbleB$) zero$))
(assert (= (size$b nibble8$) zero$))
(assert (= size$d (rec_bool$ zero$ zero$)))
(assert (forall ((?v0 Nat$) (?v1 Nat$)) (= (= ?v0 (fun_app$b (plus$ ?v0) ?v1)) (= ?v1 zero$)) ))
(assert (= size_bool$ (rec_bool$ zero$ zero$)))
(assert (= zero$ zero$))
(assert (forall ((?v0 Nat$) (?v1 Nat$)) (! (= (fun_app$a (rec_bool$ ?v0 ?v1) true) ?v0) :pattern ((rec_bool$ ?v0 ?v1)))))
(assert (forall ((?v0 Nat$) (?v1 Nat$)) (! (= (fun_app$a (rec_bool$ ?v0 ?v1) false) ?v1) :pattern ((rec_bool$ ?v0 ?v1)))))
(assert (= (size_natural$ zero$a) zero$))
(assert (= (size$b nibble0$) zero$))
(assert (= (size$b nibble1$) zero$))
(assert (= (size$b nibbleC$) zero$))
(assert (forall ((?v0 Nat$) (?v1 A_list$)) (! (= (fun_app$ (gen_length$ ?v0) ?v1) (fun_app$b (plus$ ?v0) (fun_app$ size$ ?v1))) :pattern ((fun_app$ (gen_length$ ?v0) ?v1)))))
(assert (= size$ (gen_length$ zero$)))
(assert (= (size$b nibbleD$) zero$))
(assert (forall ((?v0 A_list$) (?v1 A_list$)) (= (fun_app$ size$ (fun_app$c (splice$ ?v0) ?v1)) (fun_app$b (plus$ (fun_app$ size$ ?v0)) (fun_app$ size$ ?v1))) ))
(assert (forall ((?v0 A_bool_fun$)) (! (= (fun_app$d (list_ex1$ ?v0) nil$) false) :pattern ((list_ex1$ ?v0)))))
(assert (= (size$b nibbleF$) zero$))
(assert (forall ((?v0 A_list$)) (! (= (fun_app$c (splice$ ?v0) nil$) ?v0) :pattern ((splice$ ?v0)))))
(assert (forall ((?v0 A_list$)) (! (= (fun_app$c (splice$ nil$) ?v0) ?v0) :pattern ((fun_app$c (splice$ nil$) ?v0)))))
(assert (forall ((?v0 Nat$)) (! (= (fun_app$ (gen_length$ ?v0) nil$) ?v0) :pattern ((gen_length$ ?v0)))))
(assert (= (size$b nibble3$) zero$))
(assert (forall ((?v0 Nat$) (?v1 A_stream$) (?v2 Nat$)) (= (fun_app$c (append$ (stake$ ?v0 ?v1)) (stake$ ?v2 (sdrop$ ?v0 ?v1))) (stake$ (fun_app$b (plus$ ?v0) ?v2) ?v1)) ))
(assert (= (nibble_of_nat$ zero$) nibble0$))
(assert (forall ((?v0 A$)) (! (= (count_list$ nil$ ?v0) zero$) :pattern ((count_list$ nil$ ?v0)))))
(assert (forall ((?v0 A_list$)) (= (fun_app$e (less$ zero$) (fun_app$ size$ ?v0)) (not (= ?v0 nil$))) ))
(assert (forall ((?v0 A_list$) (?v1 A_list$) (?v2 A_list$)) (= (= (fun_app$c (append$ ?v0) ?v1) (fun_app$c (append$ ?v0) ?v2)) (= ?v1 ?v2)) ))
(assert (forall ((?v0 A_list$) (?v1 A_list$) (?v2 A_list$)) (= (= (fun_app$c (append$ ?v0) ?v1) (fun_app$c (append$ ?v2) ?v1)) (= ?v0 ?v2)) ))
(assert (forall ((?v0 A_list$) (?v1 A_list$) (?v2 A_list$)) (= (fun_app$c (append$ (fun_app$c (append$ ?v0) ?v1)) ?v2) (fun_app$c (append$ ?v0) (fun_app$c (append$ ?v1) ?v2))) ))
(assert (forall ((?v0 Natural$) (?v1 Natural$)) (= (= (suc$ ?v0) (suc$ ?v1)) (= ?v0 ?v1)) ))
(assert (forall ((?v0 Natural$) (?v1 Natural$) (?v2 Natural$)) (= (less$a (plus$a ?v0 ?v1) (plus$a ?v0 ?v2)) (less$a ?v1 ?v2)) ))
(assert (forall ((?v0 Nat$) (?v1 Nat$) (?v2 Nat$)) (= (fun_app$e (less$ (fun_app$b (plus$ ?v0) ?v1)) (fun_app$b (plus$ ?v0) ?v2)) (fun_app$e (less$ ?v1) ?v2)) ))
(assert (forall ((?v0 Natural$) (?v1 Natural$) (?v2 Natural$)) (= (less$a (plus$a ?v0 ?v1) (plus$a ?v2 ?v1)) (less$a ?v0 ?v2)) ))
(assert (forall ((?v0 Nat$) (?v1 Nat$) (?v2 Nat$)) (= (fun_app$e (less$ (fun_app$b (plus$ ?v0) ?v1)) (fun_app$b (plus$ ?v2) ?v1)) (fun_app$e (less$ ?v0) ?v2)) ))
(assert (forall ((?v0 Nat$)) (! (= (fun_app$e (less$ ?v0) zero$) false) :pattern ((less$ ?v0)))))
(assert (forall ((?v0 Nat$)) (= (not (fun_app$e (less$ zero$) ?v0)) (= ?v0 zero$)) ))
(assert (forall ((?v0 Nat$)) (= (not (= ?v0 zero$)) (fun_app$e (less$ zero$) ?v0)) ))
(assert (forall ((?v0 Nat$) (?v1 Nat$) (?v2 Nat$)) (= (fun_app$e (less$ (fun_app$b (plus$ ?v0) ?v1)) (fun_app$b (plus$ ?v0) ?v2)) (fun_app$e (less$ ?v1) ?v2)) ))
(assert (forall ((?v0 A_list$) (?v1 A_list$)) (= (= (fun_app$c (append$ ?v0) ?v1) ?v1) (= ?v0 nil$)) ))
(assert (forall ((?v0 A_list$) (?v1 A_list$)) (= (= (fun_app$c (append$ ?v0) ?v1) ?v0) (= ?v1 nil$)) ))
(assert (forall ((?v0 A_list$) (?v1 A_list$)) (= (= ?v0 (fun_app$c (append$ ?v1) ?v0)) (= ?v1 nil$)) ))
(assert (forall ((?v0 A_list$) (?v1 A_list$)) (= (= ?v0 (fun_app$c (append$ ?v0) ?v1)) (= ?v1 nil$)) ))
(assert (forall ((?v0 A_list$) (?v1 A_list$)) (= (= nil$ (fun_app$c (append$ ?v0) ?v1)) (and (= ?v0 nil$) (= ?v1 nil$))) ))
(assert (forall ((?v0 A_list$) (?v1 A_list$)) (= (= (fun_app$c (append$ ?v0) ?v1) nil$) (and (= ?v0 nil$) (= ?v1 nil$))) ))
(assert (forall ((?v0 A_list$)) (! (= (fun_app$c (append$ ?v0) nil$) ?v0) :pattern ((append$ ?v0)))))
(assert (forall ((?v0 A_list$) (?v1 A_list$) (?v2 A_list$) (?v3 A_list$)) (=> (or (= (fun_app$ size$ ?v0) (fun_app$ size$ ?v1)) (= (fun_app$ size$ ?v2) (fun_app$ size$ ?v3))) (= (= (fun_app$c (append$ ?v0) ?v2) (fun_app$c (append$ ?v1) ?v3)) (and (= ?v0 ?v1) (= ?v2 ?v3)))) ))
(assert (forall ((?v0 A_list$) (?v1 A_list$) (?v2 A_stream$)) (= (shift$ (fun_app$c (append$ ?v0) ?v1) ?v2) (shift$ ?v0 (shift$ ?v1 ?v2))) ))
(assert (forall ((?v0 Nat$) (?v1 Nat$)) (= (fun_app$e (less$ zero$) (fun_app$b (plus$ ?v0) ?v1)) (or (fun_app$e (less$ zero$) ?v0) (fun_app$e (less$ zero$) ?v1))) ))
(assert (forall ((?v0 A_list$) (?v1 A_list$)) (= (fun_app$ size$ (fun_app$c (append$ ?v0) ?v1)) (fun_app$b (plus$ (fun_app$ size$ ?v0)) (fun_app$ size$ ?v1))) ))
(assert (forall ((?v0 A_list$) (?v1 A_list$) (?v2 A_list$) (?v3 A_list$)) (= (= (fun_app$c (append$ ?v0) ?v1) (fun_app$c (append$ ?v2) ?v3)) (exists ((?v4 A_list$)) (or (and (= ?v0 (fun_app$c (append$ ?v2) ?v4)) (= (fun_app$c (append$ ?v4) ?v1) ?v3)) (and (= (fun_app$c (append$ ?v0) ?v4) ?v2) (= ?v1 (fun_app$c (append$ ?v4) ?v3)))) )) ))
(assert (forall ((?v0 A_list$) (?v1 A_list$) (?v2 A_list$) (?v3 A_list$) (?v4 A_list$)) (=> (and (= (fun_app$c (append$ ?v0) ?v1) ?v2) (= ?v3 (fun_app$c (append$ ?v1) ?v4))) (= (fun_app$c (append$ ?v0) ?v3) (fun_app$c (append$ ?v2) ?v4))) ))
(assert (forall ((?v0 Nat$) (?v1 Nat$)) (= (not (= ?v0 ?v1)) (or (fun_app$e (less$ ?v0) ?v1) (fun_app$e (less$ ?v1) ?v0))) ))
(assert (forall ((?v0 Nat$) (?v1 Nat$) (?v2 Nat_nat_bool_fun_fun$)) (=> (and (=> (fun_app$e (less$ ?v0) ?v1) (fun_app$e (fun_app$f ?v2 ?v1) ?v0)) (and (=> (= ?v0 ?v1) (fun_app$e (fun_app$f ?v2 ?v1) ?v0)) (=> (fun_app$e (less$ ?v1) ?v0) (fun_app$e (fun_app$f ?v2 ?v1) ?v0)))) (fun_app$e (fun_app$f ?v2 ?v1) ?v0)) ))
(assert (forall ((?v0 Nat_bool_fun$) (?v1 Nat$)) (=> (forall ((?v2 Nat$)) (=> (not (fun_app$e ?v0 ?v2)) (exists ((?v3 Nat$)) (and (fun_app$e (less$ ?v3) ?v2) (not (fun_app$e ?v0 ?v3))) )) ) (fun_app$e ?v0 ?v1)) ))
(assert (forall ((?v0 Nat_bool_fun$) (?v1 Nat$)) (=> (forall ((?v2 Nat$)) (=> (forall ((?v3 Nat$)) (=> (fun_app$e (less$ ?v3) ?v2) (fun_app$e ?v0 ?v3)) ) (fun_app$e ?v0 ?v2)) ) (fun_app$e ?v0 ?v1)) ))
(assert (forall ((?v0 Nat$) (?v1 Nat$)) (=> (fun_app$e (less$ ?v0) ?v1) (not (= ?v0 ?v1))) ))
(assert (forall ((?v0 Nat$) (?v1 Nat$)) (=> (fun_app$e (less$ ?v0) ?v1) (not (= ?v1 ?v0))) ))
(assert (forall ((?v0 Nat$)) (=> (fun_app$e (less$ ?v0) ?v0) false) ))
(assert (forall ((?v0 Nat$) (?v1 Nat$)) (=> (and (not (= ?v0 ?v1)) (and (=> (fun_app$e (less$ ?v0) ?v1) false) (=> (fun_app$e (less$ ?v1) ?v0) false))) false) ))
(assert (forall ((?v0 Nat$)) (not (fun_app$e (less$ ?v0) ?v0)) ))
(assert (forall ((?v0 A_list$)) (! (= (fun_app$c (append$ nil$) ?v0) ?v0) :pattern ((fun_app$c (append$ nil$) ?v0)))))
(assert (forall ((?v0 A_list$) (?v1 A_list$)) (=> (= ?v0 ?v1) (= ?v0 (fun_app$c (append$ nil$) ?v1))) ))
(assert (forall ((?v0 Natural$) (?v1 Natural$) (?v2 Natural$)) (=> (less$a ?v0 ?v1) (less$a (plus$a ?v2 ?v0) (plus$a ?v2 ?v1))) ))
(assert (forall ((?v0 Nat$) (?v1 Nat$) (?v2 Nat$)) (=> (fun_app$e (less$ ?v0) ?v1) (fun_app$e (less$ (fun_app$b (plus$ ?v2) ?v0)) (fun_app$b (plus$ ?v2) ?v1))) ))
(assert (forall ((?v0 Natural$) (?v1 Natural$) (?v2 Natural$)) (=> (less$a ?v0 ?v1) (less$a (plus$a ?v0 ?v2) (plus$a ?v1 ?v2))) ))
(assert (forall ((?v0 Nat$) (?v1 Nat$) (?v2 Nat$)) (=> (fun_app$e (less$ ?v0) ?v1) (fun_app$e (less$ (fun_app$b (plus$ ?v0) ?v2)) (fun_app$b (plus$ ?v1) ?v2))) ))
(assert (forall ((?v0 Natural$) (?v1 Natural$) (?v2 Natural$) (?v3 Natural$)) (=> (and (less$a ?v0 ?v1) (less$a ?v2 ?v3)) (less$a (plus$a ?v0 ?v2) (plus$a ?v1 ?v3))) ))
(assert (forall ((?v0 Nat$) (?v1 Nat$) (?v2 Nat$) (?v3 Nat$)) (=> (and (fun_app$e (less$ ?v0) ?v1) (fun_app$e (less$ ?v2) ?v3)) (fun_app$e (less$ (fun_app$b (plus$ ?v0) ?v2)) (fun_app$b (plus$ ?v1) ?v3))) ))
(assert (forall ((?v0 Natural$) (?v1 Natural$) (?v2 Natural$)) (=> (less$a (plus$a ?v0 ?v1) (plus$a ?v0 ?v2)) (less$a ?v1 ?v2)) ))
(assert (forall ((?v0 Nat$) (?v1 Nat$) (?v2 Nat$)) (=> (fun_app$e (less$ (fun_app$b (plus$ ?v0) ?v1)) (fun_app$b (plus$ ?v0) ?v2)) (fun_app$e (less$ ?v1) ?v2)) ))
(assert (forall ((?v0 Natural$) (?v1 Natural$) (?v2 Natural$)) (=> (less$a (plus$a ?v0 ?v1) (plus$a ?v2 ?v1)) (less$a ?v0 ?v2)) ))
(assert (forall ((?v0 Nat$) (?v1 Nat$) (?v2 Nat$)) (=> (fun_app$e (less$ (fun_app$b (plus$ ?v0) ?v1)) (fun_app$b (plus$ ?v2) ?v1)) (fun_app$e (less$ ?v0) ?v2)) ))
(assert (forall ((?v0 Natural$) (?v1 Natural$) (?v2 Natural$) (?v3 Natural$)) (=> (and (less$a ?v0 ?v1) (less$a ?v2 ?v3)) (less$a (plus$a ?v0 ?v2) (plus$a ?v1 ?v3))) ))
(assert (forall ((?v0 Nat$) (?v1 Nat$) (?v2 Nat$) (?v3 Nat$)) (=> (and (fun_app$e (less$ ?v0) ?v1) (fun_app$e (less$ ?v2) ?v3)) (fun_app$e (less$ (fun_app$b (plus$ ?v0) ?v2)) (fun_app$b (plus$ ?v1) ?v3))) ))
(assert (forall ((?v0 Natural$) (?v1 Natural$) (?v2 Natural$) (?v3 Natural$)) (=> (and (less$a ?v0 ?v1) (= ?v2 ?v3)) (less$a (plus$a ?v0 ?v2) (plus$a ?v1 ?v3))) ))
(assert (forall ((?v0 Nat$) (?v1 Nat$) (?v2 Nat$) (?v3 Nat$)) (=> (and (fun_app$e (less$ ?v0) ?v1) (= ?v2 ?v3)) (fun_app$e (less$ (fun_app$b (plus$ ?v0) ?v2)) (fun_app$b (plus$ ?v1) ?v3))) ))
(assert (forall ((?v0 Natural$) (?v1 Natural$) (?v2 Natural$) (?v3 Natural$)) (=> (and (= ?v0 ?v1) (less$a ?v2 ?v3)) (less$a (plus$a ?v0 ?v2) (plus$a ?v1 ?v3))) ))
(assert (forall ((?v0 Nat$) (?v1 Nat$) (?v2 Nat$) (?v3 Nat$)) (=> (and (= ?v0 ?v1) (fun_app$e (less$ ?v2) ?v3)) (fun_app$e (less$ (fun_app$b (plus$ ?v0) ?v2)) (fun_app$b (plus$ ?v1) ?v3))) ))
(assert (forall ((?v0 Nat$)) (not (fun_app$e (less$ ?v0) zero$)) ))
(assert (forall ((?v0 Nat_bool_fun$) (?v1 Nat$)) (=> (and (fun_app$e ?v0 zero$) (forall ((?v2 Nat$)) (=> (and (fun_app$e (less$ zero$) ?v2) (not (fun_app$e ?v0 ?v2))) (exists ((?v3 Nat$)) (and (fun_app$e (less$ ?v3) ?v2) (not (fun_app$e ?v0 ?v3))) )) )) (fun_app$e ?v0 ?v1)) ))
(assert (forall ((?v0 Nat$)) (=> (fun_app$e (less$ ?v0) zero$) false) ))
(assert (forall ((?v0 Nat$) (?v1 Nat$)) (=> (fun_app$e (less$ ?v0) ?v1) (not (= ?v1 zero$))) ))
(assert (forall ((?v0 Nat$)) (=> (=> (= ?v0 zero$) false) (fun_app$e (less$ zero$) ?v0)) ))
(assert (forall ((?v0 A_list_bool_fun$) (?v1 A_list$)) (=> (forall ((?v2 A_list$)) (=> (forall ((?v3 A_list$)) (=> (fun_app$e (less$ (fun_app$ size$ ?v3)) (fun_app$ size$ ?v2)) (fun_app$d ?v0 ?v3)) ) (fun_app$d ?v0 ?v2)) ) (fun_app$d ?v0 ?v1)) ))
(assert (forall ((?v0 Nat$) (?v1 Nat$)) (not (fun_app$e (less$ (fun_app$b (plus$ ?v0) ?v1)) ?v0)) ))
(assert (forall ((?v0 Nat$) (?v1 Nat$)) (not (fun_app$e (less$ (fun_app$b (plus$ ?v0) ?v1)) ?v1)) ))
(assert (forall ((?v0 Nat$) (?v1 Nat$) (?v2 Nat$)) (=> (fun_app$e (less$ ?v0) ?v1) (fun_app$e (less$ ?v0) (fun_app$b (plus$ ?v1) ?v2))) ))
(assert (forall ((?v0 Nat$) (?v1 Nat$) (?v2 Nat$)) (=> (fun_app$e (less$ ?v0) ?v1) (fun_app$e (less$ ?v0) (fun_app$b (plus$ ?v2) ?v1))) ))
(assert (forall ((?v0 Nat$) (?v1 Nat$) (?v2 Nat$)) (=> (fun_app$e (less$ ?v0) ?v1) (fun_app$e (less$ (fun_app$b (plus$ ?v0) ?v2)) (fun_app$b (plus$ ?v1) ?v2))) ))
(assert (forall ((?v0 Nat$) (?v1 Nat$) (?v2 Nat$) (?v3 Nat$)) (=> (and (fun_app$e (less$ ?v0) ?v1) (fun_app$e (less$ ?v2) ?v3)) (fun_app$e (less$ (fun_app$b (plus$ ?v0) ?v2)) (fun_app$b (plus$ ?v1) ?v3))) ))
(assert (forall ((?v0 Nat$) (?v1 Nat$) (?v2 Nat$) (?v3 Nat$)) (=> (and (fun_app$e (less$ ?v0) ?v1) (= (fun_app$b (plus$ ?v2) ?v1) (fun_app$b (plus$ ?v0) ?v3))) (fun_app$e (less$ ?v2) ?v3)) ))
(assert (forall ((?v0 Nat$) (?v1 Nat$) (?v2 Nat$)) (=> (fun_app$e (less$ (fun_app$b (plus$ ?v0) ?v1)) ?v2) (fun_app$e (less$ ?v0) ?v2)) ))
(assert (forall ((?v0 Natural$)) (not (= (suc$ ?v0) zero$a)) ))
(assert (forall ((?v0 Natural$)) (not (= zero$a (suc$ ?v0))) ))
(assert (forall ((?v0 Natural$)) (=> (and (=> (= ?v0 zero$a) false) (forall ((?v1 Natural$)) (=> (= ?v0 (suc$ ?v1)) false) )) false) ))
(assert (forall ((?v0 Natural$) (?v1 Natural$)) (=> (and (less$a zero$a ?v0) (less$a zero$a ?v1)) (less$a zero$a (plus$a ?v0 ?v1))) ))
(assert (forall ((?v0 Nat$) (?v1 Nat$)) (=> (and (fun_app$e (less$ zero$) ?v0) (fun_app$e (less$ zero$) ?v1)) (fun_app$e (less$ zero$) (fun_app$b (plus$ ?v0) ?v1))) ))
(assert (forall ((?v0 Natural$) (?v1 Natural$)) (=> (and (less$a ?v0 zero$a) (less$a ?v1 zero$a)) (less$a (plus$a ?v0 ?v1) zero$a)) ))
(assert (forall ((?v0 Nat$) (?v1 Nat$)) (=> (and (fun_app$e (less$ ?v0) zero$) (fun_app$e (less$ ?v1) zero$)) (fun_app$e (less$ (fun_app$b (plus$ ?v0) ?v1)) zero$)) ))
(assert (forall ((?v0 Nat$) (?v1 Nat$)) (=> (fun_app$e (less$ ?v0) ?v1) (exists ((?v2 Nat$)) (and (fun_app$e (less$ zero$) ?v2) (= (fun_app$b (plus$ ?v0) ?v2) ?v1)) )) ))
(assert (forall ((?v0 Nat$) (?v1 Nat$) (?v2 Nat$)) (=> (and (fun_app$e (less$ zero$) ?v0) (fun_app$e (less$ ?v1) ?v2)) (fun_app$e (less$ ?v1) (fun_app$b (plus$ ?v0) ?v2))) ))
(assert (not (fun_app$e (less$ zero$) zero$)))
(assert (forall ((?v0 A_list$) (?v1 Nat$)) (=> (and (not (= ?v0 nil$)) (fun_app$e (less$ ?v1) (fun_app$ size$ ?v0))) (= (stake$ ?v1 (cycle$ ?v0)) (fun_app$c (take$ ?v1) ?v0))) ))
(assert (forall ((?v0 Natural$)) (! (= (size_natural$ (suc$ ?v0)) (fun_app$b (plus$ (size_natural$ ?v0)) (suc$a zero$))) :pattern ((suc$ ?v0)))))
(assert (forall ((?v0 Natural$)) (! (= (size$e (suc$ ?v0)) (fun_app$b (plus$ (size$e ?v0)) (suc$a zero$))) :pattern ((suc$ ?v0)))))
(assert (forall ((?v0 Nat$) (?v1 Nat$)) (= (= (suc$a ?v0) (suc$a ?v1)) (= ?v0 ?v1)) ))
(assert (forall ((?v0 Nat$) (?v1 Nat$)) (= (= (suc$a ?v0) (suc$a ?v1)) (= ?v0 ?v1)) ))
(assert (forall ((?v0 Nat$)) (fun_app$e (less$ ?v0) (suc$a ?v0)) ))
(assert (forall ((?v0 Nat$) (?v1 Nat$)) (=> (fun_app$e (less$ ?v0) ?v1) (fun_app$e (less$ (suc$a ?v0)) (suc$a ?v1))) ))
(assert (forall ((?v0 Nat$) (?v1 Nat$)) (! (= (fun_app$e (less$ (suc$a ?v0)) (suc$a ?v1)) (fun_app$e (less$ ?v0) ?v1)) :pattern ((fun_app$e (less$ (suc$a ?v0)) (suc$a ?v1))))))
(assert (forall ((?v0 Nat$) (?v1 Nat$)) (! (= (fun_app$b (plus$ ?v0) (suc$a ?v1)) (suc$a (fun_app$b (plus$ ?v0) ?v1))) :pattern ((fun_app$b (plus$ ?v0) (suc$a ?v1))))))
(assert (forall ((?v0 Nat$)) (fun_app$e (less$ zero$) (suc$a ?v0)) ))
(assert (forall ((?v0 Nat$)) (! (= (fun_app$e (less$ ?v0) (suc$a zero$)) (= ?v0 zero$)) :pattern ((less$ ?v0)))))
(assert (forall ((?v0 Nat$) (?v1 A_list$)) (= (= (fun_app$c (take$ ?v0) ?v1) nil$) (or (= ?v0 zero$) (= ?v1 nil$))) ))
(assert (forall ((?v0 A_list$)) (! (= (fun_app$c (take$ zero$) ?v0) nil$) :pattern ((fun_app$c (take$ zero$) ?v0)))))
(assert (forall ((?v0 Nat$)) (not (= ?v0 (suc$a ?v0))) ))
(assert (forall ((?v0 Nat$) (?v1 Nat$)) (=> (= (suc$a ?v0) (suc$a ?v1)) (= ?v0 ?v1)) ))
(assert (forall ((?v0 A_list$) (?v1 A_list$)) (=> (forall ((?v2 Nat$)) (= (fun_app$c (take$ ?v2) ?v0) (fun_app$c (take$ ?v2) ?v1)) ) (= ?v0 ?v1)) ))
(assert (forall ((?v0 Nat$)) (! (= (fun_app$c (take$ ?v0) nil$) nil$) :pattern ((take$ ?v0)))))
(assert (forall ((?v0 Nat$)) (=> (and (=> (= ?v0 zero$) false) (forall ((?v1 Nat$)) (=> (= ?v0 (suc$a ?v1)) false) )) false) ))
(assert (forall ((?v0 Nat_nat_bool_fun_fun$) (?v1 Nat$) (?v2 Nat$)) (=> (and (forall ((?v3 Nat$)) (fun_app$e (fun_app$f ?v0 ?v3) zero$) ) (and (forall ((?v3 Nat$)) (fun_app$e (fun_app$f ?v0 zero$) (suc$a ?v3)) ) (forall ((?v3 Nat$) (?v4 Nat$)) (=> (fun_app$e (fun_app$f ?v0 ?v3) ?v4) (fun_app$e (fun_app$f ?v0 (suc$a ?v3)) (suc$a ?v4))) ))) (fun_app$e (fun_app$f ?v0 ?v1) ?v2)) ))
(assert (forall ((?v0 Nat$)) (=> (= (suc$a ?v0) zero$) false) ))
(assert (forall ((?v0 Nat$) (?v1 Nat$)) (=> (= ?v0 (suc$a ?v1)) (not (= ?v0 zero$))) ))
(assert (forall ((?v0 Nat$)) (=> (= zero$ (suc$a ?v0)) false) ))
(assert (forall ((?v0 Nat$)) (=> (not (= ?v0 zero$)) (exists ((?v1 Nat$)) (= ?v0 (suc$a ?v1)) )) ))
(assert (forall ((?v0 Nat_bool_fun$) (?v1 Nat$)) (=> (and (fun_app$e ?v0 ?v1) (forall ((?v2 Nat$)) (=> (fun_app$e ?v0 (suc$a ?v2)) (fun_app$e ?v0 ?v2)) )) (fun_app$e ?v0 zero$)) ))
(assert (forall ((?v0 Nat_bool_fun$) (?v1 Nat$)) (=> (and (fun_app$e ?v0 zero$) (forall ((?v2 Nat$)) (=> (fun_app$e ?v0 ?v2) (fun_app$e ?v0 (suc$a ?v2))) )) (fun_app$e ?v0 ?v1)) ))
(assert (forall ((?v0 Nat$)) (not (= zero$ (suc$a ?v0))) ))
(assert (forall ((?v0 Nat$)) (not (= zero$ (suc$a ?v0))) ))
(assert (forall ((?v0 Nat$)) (not (= (suc$a ?v0) zero$)) ))
(assert (forall ((?v0 Nat$)) (not (= zero$ (suc$a ?v0))) ))
(assert (forall ((?v0 Nat$) (?v1 Nat$)) (! (=> (not (fun_app$e (less$ ?v0) ?v1)) (= (fun_app$e (less$ ?v0) (suc$a ?v1)) (= ?v0 ?v1))) :pattern ((fun_app$e (less$ ?v0) (suc$a ?v1))))))
(assert (forall ((?v0 Nat$) (?v1 Nat$)) (=> (and (not (fun_app$e (less$ ?v0) ?v1)) (fun_app$e (less$ ?v0) (suc$a ?v1))) (= ?v1 ?v0)) ))
(assert (forall ((?v0 Nat$) (?v1 Nat$)) (=> (fun_app$e (less$ ?v0) ?v1) (fun_app$e (less$ ?v0) (suc$a ?v1))) ))
(assert (forall ((?v0 Nat$) (?v1 Nat$)) (=> (and (fun_app$e (less$ ?v0) ?v1) (not (= (suc$a ?v0) ?v1))) (fun_app$e (less$ (suc$a ?v0)) ?v1)) ))
(assert (forall ((?v0 Nat$) (?v1 Nat$) (?v2 Nat$)) (=> (and (fun_app$e (less$ ?v0) ?v1) (fun_app$e (less$ ?v1) ?v2)) (fun_app$e (less$ (suc$a ?v0)) ?v2)) ))
(assert (forall ((?v0 Nat$) (?v1 Nat$) (?v2 Nat_nat_bool_fun_fun$)) (=> (and (fun_app$e (less$ ?v0) ?v1) (and (forall ((?v3 Nat$)) (fun_app$e (fun_app$f ?v2 ?v3) (suc$a ?v3)) ) (forall ((?v3 Nat$) (?v4 Nat$) (?v5 Nat$)) (=> (and (fun_app$e (less$ ?v3) ?v4) (and (fun_app$e (less$ ?v4) ?v5) (and (fun_app$e (fun_app$f ?v2 ?v3) ?v4) (fun_app$e (fun_app$f ?v2 ?v4) ?v5)))) (fun_app$e (fun_app$f ?v2 ?v3) ?v5)) ))) (fun_app$e (fun_app$f ?v2 ?v0) ?v1)) ))
(assert (forall ((?v0 Nat$) (?v1 Nat$) (?v2 Nat_bool_fun$)) (=> (and (fun_app$e (less$ ?v0) ?v1) (and (forall ((?v3 Nat$)) (=> (= ?v1 (suc$a ?v3)) (fun_app$e ?v2 ?v3)) ) (forall ((?v3 Nat$)) (=> (and (fun_app$e (less$ ?v3) ?v1) (fun_app$e ?v2 (suc$a ?v3))) (fun_app$e ?v2 ?v3)) ))) (fun_app$e ?v2 ?v0)) ))
(assert (forall ((?v0 Nat$) (?v1 Nat$)) (=> (and (fun_app$e (less$ ?v0) ?v1) (and (=> (= ?v1 (suc$a ?v0)) false) (forall ((?v2 Nat$)) (=> (and (fun_app$e (less$ ?v0) ?v2) (= ?v1 (suc$a ?v2))) false) ))) false) ))
(assert (forall ((?v0 Nat$) (?v1 Nat$)) (=> (and (fun_app$e (less$ ?v0) (suc$a ?v1)) (and (=> (fun_app$e (less$ ?v0) ?v1) false) (=> (= ?v0 ?v1) false))) false) ))
(assert (forall ((?v0 Nat$) (?v1 Nat$)) (=> (fun_app$e (less$ (suc$a ?v0)) ?v1) (fun_app$e (less$ ?v0) ?v1)) ))
(assert (forall ((?v0 Nat$) (?v1 Nat$)) (=> (and (fun_app$e (less$ (suc$a ?v0)) ?v1) (forall ((?v2 Nat$)) (=> (and (fun_app$e (less$ ?v0) ?v2) (= ?v1 (suc$a ?v2))) false) )) false) ))
(assert (forall ((?v0 Nat$) (?v1 Nat$)) (=> (fun_app$e (less$ (suc$a ?v0)) (suc$a ?v1)) (fun_app$e (less$ ?v0) ?v1)) ))
(assert (forall ((?v0 Nat$) (?v1 Nat$)) (= (not (fun_app$e (less$ ?v0) ?v1)) (fun_app$e (less$ ?v1) (suc$a ?v0))) ))
(assert (forall ((?v0 Nat$) (?v1 Nat$)) (= (fun_app$e (less$ (suc$a ?v0)) ?v1) (exists ((?v2 Nat$)) (and (= ?v1 (suc$a ?v2)) (fun_app$e (less$ ?v0) ?v2)) )) ))
(assert (forall ((?v0 Nat$) (?v1 Nat$)) (! (= (fun_app$e (less$ ?v0) (suc$a ?v1)) (or (fun_app$e (less$ ?v0) ?v1) (= ?v0 ?v1))) :pattern ((fun_app$e (less$ ?v0) (suc$a ?v1))))))
(assert (forall ((?v0 Nat$) (?v1 Nat$)) (! (= (fun_app$b (plus$ (suc$a ?v0)) ?v1) (fun_app$b (plus$ ?v0) (suc$a ?v1))) :pattern ((fun_app$b (plus$ (suc$a ?v0)) ?v1)))))
(assert (forall ((?v0 Nat$) (?v1 Nat$)) (! (= (fun_app$b (plus$ (suc$a ?v0)) ?v1) (suc$a (fun_app$b (plus$ ?v0) ?v1))) :pattern ((fun_app$b (plus$ (suc$a ?v0)) ?v1)))))
(assert (forall ((?v0 Nat_natural_fun$) (?v1 Nat$) (?v2 Nat$)) (=> (forall ((?v3 Nat$)) (less$a (fun_app$g ?v0 ?v3) (fun_app$g ?v0 (suc$a ?v3))) ) (= (less$a (fun_app$g ?v0 ?v1) (fun_app$g ?v0 ?v2)) (fun_app$e (less$ ?v1) ?v2))) ))
(assert (forall ((?v0 Nat_nat_fun$) (?v1 Nat$) (?v2 Nat$)) (=> (forall ((?v3 Nat$)) (fun_app$e (less$ (fun_app$b ?v0 ?v3)) (fun_app$b ?v0 (suc$a ?v3))) ) (= (fun_app$e (less$ (fun_app$b ?v0 ?v1)) (fun_app$b ?v0 ?v2)) (fun_app$e (less$ ?v1) ?v2))) ))
(assert (forall ((?v0 Nat_natural_fun$) (?v1 Nat$) (?v2 Nat$)) (=> (and (forall ((?v3 Nat$)) (less$a (fun_app$g ?v0 ?v3) (fun_app$g ?v0 (suc$a ?v3))) ) (fun_app$e (less$ ?v1) ?v2)) (less$a (fun_app$g ?v0 ?v1) (fun_app$g ?v0 ?v2))) ))
(assert (forall ((?v0 Nat_nat_fun$) (?v1 Nat$) (?v2 Nat$)) (=> (and (forall ((?v3 Nat$)) (fun_app$e (less$ (fun_app$b ?v0 ?v3)) (fun_app$b ?v0 (suc$a ?v3))) ) (fun_app$e (less$ ?v1) ?v2)) (fun_app$e (less$ (fun_app$b ?v0 ?v1)) (fun_app$b ?v0 ?v2))) ))
(assert (forall ((?v0 Nat$)) (=> (fun_app$e (less$ zero$) ?v0) (exists ((?v1 Nat$)) (= ?v0 (suc$a ?v1)) )) ))
(assert (forall ((?v0 Nat$)) (= (fun_app$e (less$ zero$) ?v0) (exists ((?v1 Nat$)) (= ?v0 (suc$a ?v1)) )) ))
(assert (forall ((?v0 Nat$) (?v1 Nat$)) (= (fun_app$e (less$ ?v0) (suc$a ?v1)) (or (= ?v0 zero$) (exists ((?v2 Nat$)) (and (= ?v0 (suc$a ?v2)) (fun_app$e (less$ ?v2) ?v1)) ))) ))
(assert (forall ((?v0 Nat$) (?v1 Nat$)) (= (= (fun_app$b (plus$ ?v0) ?v1) (suc$a zero$)) (or (and (= ?v0 (suc$a zero$)) (= ?v1 zero$)) (and (= ?v0 zero$) (= ?v1 (suc$a zero$))))) ))
(assert (forall ((?v0 Nat$) (?v1 Nat$)) (= (= (suc$a zero$) (fun_app$b (plus$ ?v0) ?v1)) (or (and (= ?v0 (suc$a zero$)) (= ?v1 zero$)) (and (= ?v0 zero$) (= ?v1 (suc$a zero$))))) ))
(assert (forall ((?v0 Nat$) (?v1 Nat$)) (= (fun_app$e (less$ ?v0) ?v1) (exists ((?v2 Nat$)) (= ?v1 (suc$a (fun_app$b (plus$ ?v0) ?v2))) )) ))
(assert (forall ((?v0 Nat$) (?v1 Nat$)) (=> (fun_app$e (less$ ?v0) ?v1) (exists ((?v2 Nat$)) (= ?v1 (suc$a (fun_app$b (plus$ ?v0) ?v2))) )) ))
(assert (forall ((?v0 Nat$) (?v1 Nat$)) (fun_app$e (less$ ?v0) (suc$a (fun_app$b (plus$ ?v1) ?v0))) ))
(assert (forall ((?v0 Nat$) (?v1 Nat$)) (fun_app$e (less$ ?v0) (suc$a (fun_app$b (plus$ ?v0) ?v1))) ))
(assert (forall ((?v0 Nat$)) (=> (and (=> (= ?v0 zero$) false) (forall ((?v1 Nat$)) (=> (= ?v0 (suc$a ?v1)) false) )) false) ))
(assert (forall ((?v0 Nat$) (?v1 A_list$) (?v2 A_stream$)) (= (stake$ ?v0 (shift$ ?v1 ?v2)) (fun_app$c (append$ (fun_app$c (take$ ?v0) ?v1)) (stake$ (fun_app$b (minus$ ?v0) (fun_app$ size$ ?v1)) ?v2))) ))
(assert (forall ((?v0 Natural$)) (= (fun_app$h (minus$a ?v0) zero$a) ?v0) ))
(assert (forall ((?v0 Nat$)) (= (fun_app$b (minus$ ?v0) zero$) ?v0) ))
(assert (forall ((?v0 Natural$)) (! (= (fun_app$h (minus$a ?v0) ?v0) zero$a) :pattern ((minus$a ?v0)))))
(assert (forall ((?v0 Nat$)) (! (= (fun_app$b (minus$ ?v0) ?v0) zero$) :pattern ((minus$ ?v0)))))
(assert (forall ((?v0 Natural$)) (= (fun_app$h (minus$a zero$a) ?v0) zero$a) ))
(assert (forall ((?v0 Nat$)) (= (fun_app$b (minus$ zero$) ?v0) zero$) ))
(assert (forall ((?v0 Natural$) (?v1 Natural$) (?v2 Natural$)) (= (fun_app$h (minus$a (plus$a ?v0 ?v1)) (plus$a ?v2 ?v1)) (fun_app$h (minus$a ?v0) ?v2)) ))
(assert (forall ((?v0 Nat$) (?v1 Nat$) (?v2 Nat$)) (= (fun_app$b (minus$ (fun_app$b (plus$ ?v0) ?v1)) (fun_app$b (plus$ ?v2) ?v1)) (fun_app$b (minus$ ?v0) ?v2)) ))
(assert (forall ((?v0 Natural$) (?v1 Natural$) (?v2 Natural$)) (= (fun_app$h (minus$a (plus$a ?v0 ?v1)) (plus$a ?v0 ?v2)) (fun_app$h (minus$a ?v1) ?v2)) ))
(assert (forall ((?v0 Nat$) (?v1 Nat$) (?v2 Nat$)) (= (fun_app$b (minus$ (fun_app$b (plus$ ?v0) ?v1)) (fun_app$b (plus$ ?v0) ?v2)) (fun_app$b (minus$ ?v1) ?v2)) ))
(assert (forall ((?v0 Natural$) (?v1 Natural$)) (= (fun_app$h (minus$a (plus$a ?v0 ?v1)) ?v1) ?v0) ))
(assert (forall ((?v0 Nat$) (?v1 Nat$)) (= (fun_app$b (minus$ (fun_app$b (plus$ ?v0) ?v1)) ?v1) ?v0) ))
(assert (forall ((?v0 Natural$) (?v1 Natural$)) (= (fun_app$h (minus$a (plus$a ?v0 ?v1)) ?v0) ?v1) ))
(assert (forall ((?v0 Nat$) (?v1 Nat$)) (= (fun_app$b (minus$ (fun_app$b (plus$ ?v0) ?v1)) ?v0) ?v1) ))
(assert (forall ((?v0 Nat$)) (! (= (fun_app$b (minus$ ?v0) ?v0) zero$) :pattern ((minus$ ?v0)))))
(assert (forall ((?v0 Nat$)) (! (= (fun_app$b (minus$ zero$) ?v0) zero$) :pattern ((fun_app$b (minus$ zero$) ?v0)))))
(assert (forall ((?v0 Nat$) (?v1 Nat$)) (! (= (fun_app$b (minus$ (suc$a ?v0)) (suc$a ?v1)) (fun_app$b (minus$ ?v0) ?v1)) :pattern ((fun_app$b (minus$ (suc$a ?v0)) (suc$a ?v1))))))
(assert (forall ((?v0 Nat$) (?v1 Nat$) (?v2 Nat$)) (= (fun_app$b (minus$ (fun_app$b (minus$ (suc$a ?v0)) ?v1)) (suc$a ?v2)) (fun_app$b (minus$ (fun_app$b (minus$ ?v0) ?v1)) ?v2)) ))
(assert (forall ((?v0 Nat$) (?v1 Nat$) (?v2 Nat$)) (= (fun_app$b (minus$ (fun_app$b (minus$ ?v0) ?v1)) ?v2) (fun_app$b (minus$ ?v0) (fun_app$b (plus$ ?v1) ?v2))) ))
(assert (forall ((?v0 Natural$) (?v1 Natural$)) (= (fun_app$h (minus$a ?v0) (plus$a ?v0 ?v1)) zero$a) ))
(assert (forall ((?v0 Nat$) (?v1 Nat$)) (= (fun_app$b (minus$ ?v0) (fun_app$b (plus$ ?v0) ?v1)) zero$) ))
(assert (forall ((?v0 Nat$) (?v1 Nat$)) (= (fun_app$e (less$ zero$) (fun_app$b (minus$ ?v0) ?v1)) (fun_app$e (less$ ?v1) ?v0)) ))
(assert (forall ((?v0 Nat$)) (=> (fun_app$e (less$ zero$) ?v0) (= (suc$a (fun_app$b (minus$ ?v0) (suc$a zero$))) ?v0)) ))
(assert (forall ((?v0 Nat$) (?v1 A_list$) (?v2 A_list$)) (= (fun_app$c (take$ ?v0) (fun_app$c (append$ ?v1) ?v2)) (fun_app$c (append$ (fun_app$c (take$ ?v0) ?v1)) (fun_app$c (take$ (fun_app$b (minus$ ?v0) (fun_app$ size$ ?v1))) ?v2))) ))
(assert (forall ((?v0 Nat_bool_fun$) (?v1 Nat$) (?v2 Nat$)) (=> (and (fun_app$e ?v0 ?v1) (forall ((?v3 Nat$)) (=> (fun_app$e ?v0 (suc$a ?v3)) (fun_app$e ?v0 ?v3)) )) (fun_app$e ?v0 (fun_app$b (minus$ ?v1) ?v2))) ))
(assert (forall ((?v0 Natural$) (?v1 Natural$) (?v2 Natural$)) (= (fun_app$h (minus$a (fun_app$h (minus$a ?v0) ?v1)) ?v2) (fun_app$h (minus$a ?v0) (plus$a ?v1 ?v2))) ))
(assert (forall ((?v0 Nat$) (?v1 Nat$) (?v2 Nat$)) (= (fun_app$b (minus$ (fun_app$b (minus$ ?v0) ?v1)) ?v2) (fun_app$b (minus$ ?v0) (fun_app$b (plus$ ?v1) ?v2))) ))
(check-sat)
(exit)

